Instance0
0.0000;0.0000;106
0.0000;0.0000;106
CPXPARAM_MIP_Cuts_FlowCovers 0
Instance1
0.0000;0.0000;113
0.0000;0.0000;113
CPXPARAM_MIP_Cuts_FlowCovers 0
Instance2
0;-0.0000;101
CPXPARAM_MIP_Cuts_FlowCovers 0
Instance3
0;-0.0000;76
CPXPARAM_MIP_Cuts_FlowCovers 0
Instance4
0.0000;0.0000;109
0.0000;0.0000;117
CPXPARAM_MIP_Cuts_FlowCovers 0
Instance5
0;-0.0000;118
CPXPARAM_MIP_Cuts_FlowCovers 0
Instance6
0;0.0000;85
CPXPARAM_MIP_Cuts_FlowCovers 0
Instance7
0;0.0000;72
CPXPARAM_MIP_Cuts_FlowCovers 0
Instance8
-0.0000;-0.0000;123
-0.0000;-0.0000;164
CPXPARAM_MIP_Cuts_FlowCovers 0
Instance9
-0.0000;-0.0000;113
-0.0000;-0.0000;132
CPXPARAM_MIP_Cuts_FlowCovers 0
Instance10
0.0000;0.0000;94
0;0.0000;101
0.0000;0.0000;0.0000
CPXPARAM_MIP_Cuts_FlowCovers 0
Instance11
0;0.0000;88
CPXPARAM_MIP_Cuts_FlowCovers 0
Instance12
0.0000;0.0000;106
0;0.0000;137
CPXPARAM_MIP_Cuts_FlowCovers 0
Instance13
-0.0000;-0.0000;102
0;-0.0000;115
-0.0000;-0.0000;-0.0000
CPXPARAM_MIP_Cuts_FlowCovers 0
Instance14
-0.0000;-0.0000;78
0;-0.0000;86
-0.0000;-0.0000;-0.0000
CPXPARAM_MIP_Cuts_FlowCovers 0
Instance15
0;0.0000;79
CPXPARAM_MIP_Cuts_FlowCovers 0
Instance16
-0.0000;-0.0000;123
0;-0.0000;136
-0.0000;-0.0000;-0.0000
CPXPARAM_MIP_Cuts_FlowCovers 0
Instance17
0;-0.0000;95
CPXPARAM_MIP_Cuts_FlowCovers 0
Instance18
0;-0.0000;72
CPXPARAM_MIP_Cuts_FlowCovers 0
Instance19
0;0.0000;85
CPXPARAM_MIP_Cuts_FlowCovers 0
Instance20
0.0000;0.0000;115
0.0000;0.0000;136
CPXPARAM_MIP_Cuts_FlowCovers 0
Instance21
-0.0000;-0.0000;114
0.0000;0.0000;131
CPXPARAM_MIP_Cuts_FlowCovers 0
Instance22
0;0.0000;68
CPXPARAM_MIP_Cuts_FlowCovers 0
Instance23
0;0.0000;71
CPXPARAM_MIP_Cuts_FlowCovers 0
Instance24
0.0000;0.0000;120
0.0000;0.0000;120
CPXPARAM_MIP_Cuts_FlowCovers 0
Instance25
0.0000;0.0000;151
0.0000;0.0000;151
CPXPARAM_MIP_Cuts_FlowCovers 0
Instance26
0;0.0000;70
CPXPARAM_MIP_Cuts_FlowCovers 0
Instance27
0;-0.0000;71
CPXPARAM_MIP_Cuts_FlowCovers 0
Instance28
0.0000;0.0000;121
0.0000;0.0000;121
CPXPARAM_MIP_Cuts_FlowCovers 0
Instance29
-0.0000;-0.0000;126
-0.0000;-0.0000;149
CPXPARAM_MIP_Cuts_FlowCovers 0
Instance30
0;0.0000;82
CPXPARAM_MIP_Cuts_FlowCovers 0
Instance31
0;-0.0000;77
CPXPARAM_MIP_Cuts_FlowCovers 0
Instance32
0.0000;0.0000;147
0.0000;0.0000;174
CPXPARAM_MIP_Cuts_FlowCovers 0
Instance33
-0.0000;-0.0000;101
-0.0000;-0.0000;101
CPXPARAM_MIP_Cuts_FlowCovers 0
Instance34
0;0.0000;75
CPXPARAM_MIP_Cuts_FlowCovers 0
Instance35
0;0.0000;81
CPXPARAM_MIP_Cuts_FlowCovers 0
Instance36
-0.0000;-0.0000;118
0;-0.0000;134
-0.0000;-0.0000;-0.0000
CPXPARAM_MIP_Cuts_FlowCovers 0
Instance37
0;0.0000;118
CPXPARAM_MIP_Cuts_FlowCovers 0
Instance38
0;0.0000;72
CPXPARAM_MIP_Cuts_FlowCovers 0
Instance39
0;0.0000;81
CPXPARAM_MIP_Cuts_FlowCovers 0
